(set-option :print-success false)
(set-logic QF_UF)
(declare-sort x20 0)
(declare-sort x139 0)
(declare-fun x83 (x139 x139) x139)
(declare-fun x15 () x139)
(declare-fun x10 () x139)
(declare-fun x136 () x139)
(declare-fun x121 () x139)
(declare-fun x18 () x139)
(declare-fun x7 (x139 x139) x139)
(assert (let ((x69 (x7 x121 x121)) (x73 (x7 x15 x10)) (x74 (x7 x10 x15)) (x94 (x7 x136 x15)) (x111 (x7 x10 x136)) (x62 (x7 x10 x18)) (x29 (x7 x15 x121)) (x104 (x7 x136 x136)) (x90 (x7 x136 x18)) (x100 (x7 x121 x136)) (x63 (x7 x136 x121)) (x75 (x7 x15 x15)) (x86 (x7 x10 x121)) (x66 (x7 x18 x136)) (x144 (x7 x121 x10)) (x28 (x7 x18 x15)) (x150 (x7 x15 x18)) (x9 (x7 x15 x136)) (x151 (x7 x18 x18)) (x81 (x7 x121 x18)) (x34 (x7 x10 x10)) (x71 (x7 x18 x10)) (x157 (x7 x136 x10)) (x88 (x7 x18 x121)) (x35 (x7 x121 x15))) (and (and (and (and (not (= x9 x104)) (and (not (= x9 x66)) (and (and (and (not (= x100 x104)) (and (not (= x100 x66)) (and (not (= x9 x111)) (and (not (= x104 x111)) (and (not (= x111 x100)) (not (= x111 x66))))))) (not (= x9 x100))) (not (= x104 x66))))) (and (and (and (not (= x63 x29)) (and (not (= x88 x29)) (and (and (and (and (not (= x88 x69)) (and (not (= x86 x29)) (and (and (not (= x88 x86)) (not (= x86 x69))) (not (= x63 x86))))) (not (= x69 x63))) (not (= x69 x29))) (not (= x63 x88))))) (and (and (and (and (and (and (not (= x71 x144)) (and (not (= x34 x73)) (and (not (= x34 x157)) (and (not (= x34 x144)) (not (= x71 x34)))))) (not (= x157 x144))) (not (= x73 x144))) (not (= x157 x71))) (not (= x71 x73))) (not (= x157 x73)))) (and (and (not (= x151 x150)) (and (not (= x90 x151)) (and (and (not (= x90 x81)) (and (and (and (and (not (= x62 x151)) (not (= x81 x62))) (not (= x62 x90))) (not (= x62 x150))) (not (= x81 x151)))) (not (= x81 x150))))) (not (= x150 x90))))) (and (not (= x75 x94)) (and (not (= x28 x75)) (and (and (not (= x35 x75)) (and (and (not (= x28 x35)) (and (and (not (= x94 x74)) (and (not (= x28 x74)) (not (= x74 x35)))) (not (= x74 x75)))) (not (= x35 x94)))) (not (= x28 x94)))))) (and (and (and (and (not (= x150 x9)) (and (and (not (= x9 x29)) (and (and (not (= x73 x75)) (and (not (= x73 x9)) (and (not (= x73 x29)) (not (= x150 x73))))) (not (= x150 x29)))) (not (= x75 x29)))) (not (= x75 x150))) (not (= x9 x75))) (and (and (and (not (= x94 x90)) (and (and (and (not (= x63 x104)) (and (not (= x90 x63)) (and (not (= x94 x157)) (and (not (= x104 x157)) (and (not (= x90 x157)) (not (= x63 x157))))))) (not (= x94 x63))) (not (= x104 x90)))) (not (= x104 x94))) (and (and (and (and (and (not (= x100 x81)) (and (not (= x35 x69)) (and (and (and (and (and (not (= x144 x81)) (not (= x69 x144))) (not (= x144 x100))) (not (= x35 x144))) (not (= x69 x81))) (not (= x69 x100))))) (not (= x35 x81))) (not (= x35 x100))) (and (not (= x111 x74)) (and (not (= x62 x74)) (and (not (= x111 x62)) (and (not (= x74 x86)) (and (not (= x111 x86)) (and (and (and (and (not (= x34 x62)) (not (= x86 x34))) (not (= x34 x111))) (not (= x34 x74))) (not (= x62 x86))))))))) (and (not (= x28 x66)) (and (and (not (= x66 x151)) (and (not (= x88 x28)) (and (and (and (not (= x28 x71)) (and (and (not (= x88 x71)) (not (= x151 x71))) (not (= x66 x71)))) (not (= x88 x151))) (not (= x66 x88))))) (not (= x28 x151))))))))))
(assert (and (and (not (= (x7 x136 x136) x136)) (and (and (not (= x10 (x7 x10 x10))) (not (= x121 (x7 x121 x121)))) (not (= (x7 x18 x18) x18)))) (not (= (x7 x15 x15) x15))))
(assert (let ((x71 (x7 x18 x18)) (x157 (x7 x136 x136)) (x144 (x7 x121 x121)) (x73 (x7 x15 x15)) (x34 (x7 x10 x10))) (and (and (and (not (= x18 (x7 x71 x71))) (and (not (= (x7 x144 x144) x121)) (not (= (x7 x34 x34) x10)))) (not (= x136 (x7 x157 x157)))) (not (= x15 (x7 x73 x73))))))
(assert (let ((x17 (x7 x15 x10)) (x115 (x7 x121 x10)) (x39 (x7 x15 x18)) (x57 (x7 x18 x15)) (x54 (x7 x18 x18)) (x96 (x7 x10 x136)) (x135 (x7 x18 x121)) (x99 (x7 x10 x10)) (x129 (x7 x10 x18)) (x107 (x7 x121 x136)) (x58 (x7 x136 x136)) (x19 (x7 x121 x15)) (x108 (x7 x18 x10)) (x137 (x7 x121 x18)) (x95 (x7 x10 x15)) (x25 (x7 x10 x121)) (x122 (x7 x136 x10)) (x133 (x7 x15 x136)) (x158 (x7 x18 x136)) (x70 (x7 x136 x121)) (x113 (x7 x121 x121)) (x134 (x7 x15 x121)) (x44 (x7 x136 x15)) (x64 (x7 x136 x18)) (x23 (x7 x15 x15))) (let ((x142 (= x113 x18)) (x155 (= x99 x15)) (x104 (= x134 x10)) (x82 (= x18 x135)) (x14 (= x64 x15)) (x65 (= x70 x15)) (x154 (= x25 x15)) (x6 (= x15 x17)) (x3 (= x18 x95)) (x40 (= x129 x18)) (x84 (= x25 x18)) (x45 (= x121 x23)) (x138 (= x54 x121)) (x110 (= x113 x121)) (x106 (= x58 x18)) (x38 (= x136 x54)) (x69 (= x135 x10)) (x1 (= x137 x15)) (x5 (= x122 x136)) (x145 (= x15 x129)) (x140 (= x19 x15)) (x102 (= x121 x70)) (x148 (= x136 x57)) (x125 (= x70 x18)) (x77 (= x15 x23)) (x87 (= x136 x158)) (x112 (= x58 x15)) (x63 (= x10 x54)) (x152 (= x134 x18)) (x8 (= x134 x15)) (x159 (= x133 x136)) (x11 (= x18 x17)) (x29 (= x122 x10)) (x68 (= x115 x18)) (x26 (= x121 x17)) (x72 (= x158 x121)) (x128 (= x136 x19)) (x28 (= x133 x10)) (x114 (= x136 x17)) (x124 (= x39 x18)) (x51 (= x15 x115)) (x105 (= x15 x54)) (x156 (= x18 x64)) (x79 (= x18 x23)) (x101 (= x122 x15)) (x144 (= x115 x10)) (x42 (= x121 x96)) (x49 (= x44 x15)) (x27 (= x95 x15)) (x16 (= x107 x121)) (x22 (= x18 x54)) (x130 (= x137 x18)) (x46 (= x121 x108)) (x2 (= x96 x136)) (x41 (= x121 x57)) (x66 (= x95 x10)) (x30 (= x121 x64)) (x97 (= x18 x44)) (x12 (= x136 x129)) (x78 (= x18 x99)) (x146 (= x18 x19)) (x60 (= x121 x135)) (x147 (= x107 x136)) (x73 (= x10 x108)) (x86 (= x10 x129)) (x81 (= x70 x10)) (x52 (= x136 x137)) (x127 (= x133 x15)) (x100 (= x10 x17)) (x126 (= x136 x58)) (x91 (= x44 x121)) (x31 (= x15 x39)) (x143 (= x96 x15)) (x151 (= x107 x10)) (x21 (= x121 x95)) (x47 (= x107 x18)) (x53 (= x129 x121)) (x98 (= x136 x39)) (x80 (= x158 x18)) (x153 (= x39 x121)) (x71 (= x25 x10)) (x118 (= x137 x121)) (x35 (= x10 x57)) (x9 (= x19 x10)) (x50 (= x121 x19)) (x157 (= x113 x10)) (x76 (= x57 x18)) (x75 (= x10 x23)) (x34 (= x99 x10)) (x93 (= x108 x15)) (x36 (= x136 x25)) (x48 (= x113 x136)) (x32 (= x136 x95)) (x37 (= x44 x136)) (x117 (= x136 x115)) (x88 (= x10 x137)) (x89 (= x121 x115)) (x141 (= x133 x121)) (x4 (= x15 x107)) (x33 (= x108 x18)) (x67 (= x99 x121)) (x123 (= x15 x113)) (x94 (= x10 x44)) (x119 (= x15 x57)) (x150 (= x10 x158)) (x132 (= x58 x121)) (x74 (= x10 x39)) (x149 (= x136 x64)) (x116 (= x121 x25)) (x55 (= x122 x18)) (x92 (= x15 x158)) (x109 (= x136 x23)) (x43 (= x99 x136)) (x13 (= x136 x135)) (x56 (= x135 x15)) (x62 (= x96 x10)) (x111 (= x10 x58)) (x103 (= x18 x96)) (x90 (= x64 x10)) (x85 (= x121 x134)) (x131 (= x108 x136)) (x61 (= x121 x122)) (x120 (= x18 x133)) (x59 (= x70 x136)) (x24 (= x134 x136))) (and (and (or (or (and x109 x109) (or (or (or (and x24 x128) (and x114 x32)) (and x98 x148)) (and x159 x37))) (or (or (or (or (or (or (and x52 x13) (or (and x36 x117) (and x48 x48))) (and x59 x147)) (and x128 x24)) (or (or (or (or (and x43 x43) (and x117 x36)) (and x12 x131)) (and x5 x2)) (and x114 x32))) (or (or (or (and x38 x38) (or (and x12 x131) (and x52 x13))) (and x87 x149)) (and x98 x148))) (or (and x159 x37) (or (and x126 x126) (or (or (and x147 x59) (and x5 x2)) (and x149 x87)))))) (and (and (or (or (or (or (or (or (and x61 x42) (and x102 x16)) (and x30 x72)) (and x132 x132)) (and x141 x91)) (or (or (or (or (or (and x118 x60) (or (and x110 x110) (and x116 x89))) (and x102 x16)) (and x50 x85)) (or (or (or (or (and x89 x116) (and x67 x67)) (and x46 x53)) (and x42 x61)) (and x26 x21))) (or (or (and x30 x72) (or (or (and x46 x53) (and x118 x60)) (and x138 x138))) (and x41 x153)))) (or (and x45 x45) (or (and x141 x91) (or (or (and x85 x50) (and x26 x21)) (and x41 x153))))) (or (or (and x75 x75) (or (and x28 x94) (or (or (and x66 x100) (and x9 x104)) (and x35 x74)))) (or (or (and x28 x94) (or (and x111 x111) (or (and x90 x150) (or (and x81 x151) (and x62 x29))))) (or (or (or (and x66 x100) (or (or (and x86 x73) (or (and x144 x71) (and x34 x34))) (and x29 x62))) (or (and x9 x104) (or (and x151 x81) (or (or (and x144 x71) (and x157 x157)) (and x69 x88))))) (or (or (or (and x63 x63) (or (and x86 x73) (and x69 x88))) (and x150 x90)) (and x35 x74)))))) (or (or (or (and x120 x97) (or (and x106 x106) (or (or (and x125 x47) (and x103 x55)) (and x156 x80)))) (or (or (or (or (or (or (and x84 x68) (and x78 x78)) (and x40 x33)) (and x103 x55)) (and x11 x3)) (or (and x146 x152) (or (and x47 x125) (or (and x130 x82) (or (and x142 x142) (and x84 x68)))))) (or (and x76 x124) (or (or (or (and x130 x82) (and x33 x40)) (and x22 x22)) (and x80 x156))))) (or (and x79 x79) (or (or (or (and x3 x11) (and x152 x146)) (and x76 x124)) (and x120 x97)))))) (or (or (or (or (or (or (or (or (and x51 x154) (and x123 x123)) (and x56 x1)) (and x4 x65)) (and x8 x140)) (or (and x27 x6) (or (and x101 x143) (or (or (and x51 x154) (and x155 x155)) (and x145 x93))))) (or (and x31 x119) (or (and x92 x14) (or (or (and x145 x93) (and x56 x1)) (and x105 x105))))) (or (or (or (and x92 x14) (or (and x143 x101) (and x65 x4))) (and x112 x112)) (and x127 x49))) (or (and x77 x77) (or (and x127 x49) (or (or (and x6 x27) (and x140 x8)) (and x119 x31)))))))))
(assert (and (= x15 (x7 x121 x136)) (and (and (= (x7 x15 x10) x18) (= (x7 x136 x136) x10)) (= x136 (x7 x121 x121)))))
(assert (let ((x157 (x7 x136 (x7 x136 x136))) (x144 (x7 x121 (x7 x121 x121))) (x34 (x7 x10 (x7 x10 x10))) (x71 (x7 x18 (x7 x18 x18))) (x73 (x7 x15 (x7 x15 x15)))) (or (and (and (not (= x15 x157)) (and (not (= x15 x71)) (and (not (= x144 x15)) (not (= x34 x15))))) (not (= x73 x15))) (or (and (not (= x73 x136)) (and (not (= x136 x157)) (and (and (not (= x136 x34)) (not (= x136 x144))) (not (= x136 x71))))) (or (and (and (and (not (= x18 x71)) (and (not (= x34 x18)) (not (= x18 x144)))) (not (= x18 x157))) (not (= x73 x18))) (or (and (not (= x73 x121)) (and (not (= x157 x121)) (and (not (= x71 x121)) (and (not (= x34 x121)) (not (= x121 x144)))))) (and (not (= x73 x10)) (and (and (not (= x71 x10)) (and (not (= x144 x10)) (not (= x34 x10)))) (not (= x10 x157))))))))))
(assert (and (and (not (= x15 x18)) (and (and (and (and (not (= x18 x121)) (and (not (= x15 x10)) (and (and (not (= x121 x10)) (not (= x10 x18))) (not (= x136 x10))))) (not (= x121 x136))) (not (= x15 x121))) (not (= x18 x136)))) (not (= x136 x15))))
(assert (let ((x81 (x7 x18 x121)) (x66 (x7 x136 x18)) (x88 (x7 x121 x18)) (x100 (x7 x136 x121)) (x9 (x7 x136 x15)) (x73 (x7 x10 x15)) (x29 (x7 x121 x15)) (x151 (x7 x18 x18)) (x74 (x7 x15 x10)) (x62 (x7 x18 x10)) (x157 (x7 x10 x136)) (x90 (x7 x18 x136)) (x104 (x7 x136 x136)) (x35 (x7 x15 x121)) (x111 (x7 x136 x10)) (x94 (x7 x15 x136)) (x150 (x7 x18 x15)) (x34 (x7 x10 x10)) (x86 (x7 x121 x10)) (x63 (x7 x121 x136)) (x28 (x7 x15 x18)) (x71 (x7 x10 x18)) (x69 (x7 x121 x121)) (x144 (x7 x10 x121)) (x75 (x7 x15 x15))) (and (and (and (and (and (and (and (and (or (or (or (= x34 x18) (or (= x34 x121) (= x34 x10))) (= x136 x34)) (= x34 x15)) (or (= x144 x15) (or (= x136 x144) (or (= x144 x18) (or (= x144 x10) (= x121 x144)))))) (or (or (or (= x71 x18) (or (= x71 x121) (= x10 x71))) (= x136 x71)) (= x15 x71))) (or (or (or (= x18 x157) (or (= x157 x10) (= x157 x121))) (= x157 x136)) (= x157 x15))) (or (= x73 x15) (or (or (= x18 x73) (or (= x121 x73) (= x10 x73))) (= x73 x136)))) (and (or (= x29 x15) (or (= x136 x29) (or (or (= x29 x121) (= x29 x10)) (= x18 x29)))) (and (and (or (or (= x136 x88) (or (= x18 x88) (or (= x88 x121) (= x10 x88)))) (= x15 x88)) (and (or (= x15 x69) (or (= x136 x69) (or (= x18 x69) (or (= x69 x10) (= x69 x121))))) (or (= x86 x15) (or (= x86 x136) (or (= x86 x18) (or (= x86 x10) (= x121 x86))))))) (or (or (= x136 x63) (or (= x18 x63) (or (= x121 x63) (= x10 x63)))) (= x63 x15))))) (and (or (or (or (= x18 x150) (or (= x10 x150) (= x150 x121))) (= x150 x136)) (= x15 x150)) (and (or (= x90 x15) (or (= x136 x90) (or (= x90 x18) (or (= x121 x90) (= x10 x90))))) (and (or (or (= x136 x151) (or (or (= x151 x121) (= x10 x151)) (= x151 x18))) (= x151 x15)) (and (or (or (or (or (= x81 x121) (= x81 x10)) (= x18 x81)) (= x81 x136)) (= x15 x81)) (or (= x15 x62) (or (or (= x62 x18) (or (= x121 x62) (= x62 x10))) (= x136 x62)))))))) (and (and (and (and (or (or (= x136 x100) (or (= x18 x100) (or (= x100 x10) (= x121 x100)))) (= x100 x15)) (or (or (= x136 x111) (or (= x111 x18) (or (= x111 x10) (= x111 x121)))) (= x15 x111))) (or (= x66 x15) (or (= x66 x136) (or (or (= x66 x121) (= x10 x66)) (= x18 x66))))) (or (= x104 x15) (or (or (or (= x104 x121) (= x104 x10)) (= x18 x104)) (= x104 x136)))) (or (= x9 x15) (or (or (= x18 x9) (or (= x9 x10) (= x121 x9))) (= x136 x9))))) (and (and (and (or (or (or (= x18 x28) (or (= x121 x28) (= x10 x28))) (= x136 x28)) (= x15 x28)) (and (or (or (= x136 x74) (or (= x74 x18) (or (= x74 x10) (= x74 x121)))) (= x15 x74)) (or (or (= x136 x35) (or (or (= x35 x10) (= x121 x35)) (= x18 x35))) (= x15 x35)))) (or (= x94 x15) (or (= x136 x94) (or (= x94 x18) (or (= x121 x94) (= x10 x94)))))) (or (= x75 x15) (or (or (or (= x121 x75) (= x75 x10)) (= x75 x18)) (= x136 x75)))))))
(assert (let ((x63 (x7 x18 x18)) (x81 (x7 x136 x121)) (x111 (x7 x136 x136)) (x71 (x7 x10 x121)) (x151 (x7 x121 x136)) (x150 (x7 x18 x136)) (x86 (x7 x10 x18)) (x100 (x7 x15 x10)) (x94 (x7 x136 x15)) (x144 (x7 x121 x10)) (x29 (x7 x136 x10)) (x157 (x7 x121 x121)) (x75 (x7 x15 x15)) (x34 (x7 x10 x10)) (x62 (x7 x10 x136)) (x104 (x7 x15 x121)) (x9 (x7 x121 x15)) (x74 (x7 x15 x18)) (x66 (x7 x10 x15)) (x90 (x7 x136 x18)) (x73 (x7 x18 x10)) (x28 (x7 x15 x136)) (x35 (x7 x18 x15)) (x69 (x7 x18 x121)) (x88 (x7 x121 x18))) (or (or (or (or (and (and (and (= x88 x69) (and (= x157 x157) (= x71 x144))) (= x151 x81)) (= x104 x9)) (and (and (and (and (= x144 x71) (= x34 x34)) (= x73 x86)) (= x62 x29)) (= x66 x100))) (and (and (= x90 x150) (and (= x63 x63) (and (= x73 x86) (= x88 x69)))) (= x35 x74))) (and (and (and (and (= x62 x29) (= x81 x151)) (= x150 x90)) (= x111 x111)) (= x28 x94))) (and (and (= x94 x28) (and (= x74 x35) (and (= x100 x66) (= x9 x104)))) (= x75 x75)))))
(assert (not (and (and (and (and (= x15 (x7 x15 x121)) (and (and (= x15 (x7 x136 x15)) (and (and (and (= x18 (x7 x136 x121)) (and (= (x7 x136 x10) x136) (and (= (x7 x18 x15) x136) (and (and (= x10 (x7 x18 x18)) (and (and (= x15 (x7 x18 x10)) (and (= (x7 x121 x15) x121) (and (= (x7 x121 x136) x15) (and (and (and (= (x7 x121 x10) x10) (and (and (and (and (= (x7 x10 x10) x121) (= x10 (x7 x10 x121))) (= (x7 x10 x18) x15)) (= (x7 x10 x136) x136)) (= (x7 x10 x15) x18))) (= x136 (x7 x121 x121))) (= x18 (x7 x121 x18)))))) (= (x7 x18 x121) x121))) (= x18 (x7 x18 x136)))))) (= x121 (x7 x136 x18))) (= (x7 x136 x136) x10))) (= x18 (x7 x15 x10)))) (= (x7 x15 x18) x136)) (= (x7 x15 x136) x121)) (= x10 (x7 x15 x15)))))
(assert (let ((x74 (x7 x15 x10)) (x88 (x7 x121 x18)) (x144 (x7 x10 x121)) (x73 (x7 x10 x15)) (x86 (x7 x121 x10)) (x62 (x7 x18 x10)) (x81 (x7 x18 x121)) (x90 (x7 x18 x136)) (x29 (x7 x121 x15)) (x100 (x7 x136 x121)) (x69 (x7 x121 x121)) (x71 (x7 x10 x18)) (x35 (x7 x15 x121)) (x66 (x7 x136 x18)) (x111 (x7 x136 x10)) (x34 (x7 x10 x10)) (x9 (x7 x136 x15)) (x157 (x7 x10 x136)) (x63 (x7 x121 x136)) (x75 (x7 x15 x15)) (x94 (x7 x15 x136)) (x104 (x7 x136 x136)) (x151 (x7 x18 x18)) (x28 (x7 x15 x18)) (x150 (x7 x18 x15))) (or (and (and (and (and (not (= x121 (x7 x35 x35))) (not (= x10 (x7 x74 x74)))) (not (= (x7 x28 x28) x18))) (not (= x136 (x7 x94 x94)))) (not (= x15 (x7 x75 x75)))) (or (or (and (not (= (x7 x150 x150) x15)) (and (not (= (x7 x90 x90) x136)) (and (and (not (= (x7 x81 x81) x121)) (not (= x10 (x7 x62 x62)))) (not (= x18 (x7 x151 x151)))))) (or (and (and (not (= x136 (x7 x63 x63))) (and (not (= (x7 x88 x88) x18)) (and (not (= (x7 x86 x86) x10)) (not (= (x7 x69 x69) x121))))) (not (= x15 (x7 x29 x29)))) (and (not (= x15 (x7 x73 x73))) (and (not (= (x7 x157 x157) x136)) (and (not (= x18 (x7 x71 x71))) (and (not (= (x7 x144 x144) x121)) (not (= (x7 x34 x34) x10)))))))) (and (not (= (x7 x9 x9) x15)) (and (and (and (not (= x10 (x7 x111 x111))) (not (= (x7 x100 x100) x121))) (not (= (x7 x66 x66) x18))) (not (= (x7 x104 x104) x136))))))))
(assert (or (and (and (and (not (= (x7 x15 (x7 x15 x18)) x18)) (and (not (= (x7 x15 (x7 x15 x121)) x121)) (not (= x10 (x7 x15 (x7 x15 x10)))))) (not (= (x7 x15 (x7 x15 x136)) x136))) (not (= (x7 x15 (x7 x15 x15)) x15))) (or (or (and (and (not (= x136 (x7 x18 (x7 x18 x136)))) (and (not (= (x7 x18 (x7 x18 x18)) x18)) (and (not (= (x7 x18 (x7 x18 x121)) x121)) (not (= x10 (x7 x18 (x7 x18 x10))))))) (not (= (x7 x18 (x7 x18 x15)) x15))) (or (and (not (= x15 (x7 x10 (x7 x10 x15)))) (and (not (= x136 (x7 x10 (x7 x10 x136)))) (and (and (not (= x10 (x7 x10 (x7 x10 x10)))) (not (= x121 (x7 x10 (x7 x10 x121))))) (not (= x18 (x7 x10 (x7 x10 x18))))))) (and (not (= x15 (x7 x121 (x7 x121 x15)))) (and (and (and (not (= (x7 x121 (x7 x121 x121)) x121)) (not (= (x7 x121 (x7 x121 x10)) x10))) (not (= (x7 x121 (x7 x121 x18)) x18))) (not (= (x7 x121 (x7 x121 x136)) x136)))))) (and (not (= (x7 x136 (x7 x136 x15)) x15)) (and (and (not (= x18 (x7 x136 (x7 x136 x18)))) (and (not (= (x7 x136 (x7 x136 x121)) x121)) (not (= x10 (x7 x136 (x7 x136 x10)))))) (not (= (x7 x136 (x7 x136 x136)) x136)))))))
(assert (let ((x34 (x7 x10 x10)) (x94 (x7 x136 x15)) (x157 (x7 x136 x10)) (x73 (x7 x15 x10)) (x9 (x7 x15 x136)) (x66 (x7 x18 x136)) (x63 (x7 x136 x121)) (x100 (x7 x121 x136)) (x74 (x7 x10 x15)) (x150 (x7 x15 x18)) (x28 (x7 x18 x15)) (x69 (x7 x121 x121)) (x71 (x7 x18 x10)) (x104 (x7 x136 x136)) (x151 (x7 x18 x18)) (x75 (x7 x15 x15)) (x86 (x7 x10 x121)) (x88 (x7 x18 x121)) (x81 (x7 x121 x18)) (x90 (x7 x136 x18)) (x111 (x7 x10 x136)) (x62 (x7 x10 x18)) (x29 (x7 x15 x121)) (x35 (x7 x121 x15)) (x144 (x7 x121 x10))) (or (and (not (= x15 (x7 x75 x75))) (and (not (= x136 (x7 x94 x94))) (and (and (not (= x10 (x7 x74 x74))) (not (= (x7 x35 x35) x121))) (not (= x18 (x7 x28 x28)))))) (or (and (and (and (and (not (= x10 (x7 x111 x111))) (not (= (x7 x100 x100) x121))) (not (= x18 (x7 x66 x66)))) (not (= (x7 x104 x104) x136))) (not (= x15 (x7 x9 x9)))) (or (and (not (= x15 (x7 x150 x150))) (and (not (= x136 (x7 x90 x90))) (and (not (= x18 (x7 x151 x151))) (and (not (= (x7 x62 x62) x10)) (not (= (x7 x81 x81) x121)))))) (or (and (and (and (and (not (= x121 (x7 x69 x69))) (not (= (x7 x86 x86) x10))) (not (= (x7 x88 x88) x18))) (not (= x136 (x7 x63 x63)))) (not (= (x7 x29 x29) x15))) (and (and (not (= (x7 x157 x157) x136)) (and (and (not (= x121 (x7 x144 x144))) (not (= x10 (x7 x34 x34)))) (not (= (x7 x71 x71) x18)))) (not (= (x7 x73 x73) x15)))))))))
(assert (let ((x63 (x7 x121 x136)) (x35 (x7 x15 x121)) (x9 (x7 x136 x15)) (x111 (x7 x136 x10)) (x144 (x7 x10 x121)) (x62 (x7 x18 x10)) (x75 (x7 x15 x15)) (x88 (x7 x121 x18)) (x69 (x7 x121 x121)) (x34 (x7 x10 x10)) (x150 (x7 x18 x15)) (x66 (x7 x136 x18)) (x81 (x7 x18 x121)) (x74 (x7 x15 x10)) (x28 (x7 x15 x18)) (x157 (x7 x10 x136)) (x94 (x7 x15 x136)) (x71 (x7 x10 x18)) (x104 (x7 x136 x136)) (x90 (x7 x18 x136)) (x73 (x7 x10 x15)) (x151 (x7 x18 x18)) (x29 (x7 x121 x15)) (x86 (x7 x121 x10)) (x100 (x7 x136 x121))) (and (or (and (not (= x15 (x7 x75 x15))) (and (and (and (not (= x121 (x7 x35 x15))) (not (= (x7 x74 x15) x10))) (not (= (x7 x28 x15) x18))) (not (= (x7 x94 x15) x136)))) (or (and (not (= x15 (x7 x9 x136))) (and (not (= (x7 x104 x136) x136)) (and (and (not (= x10 (x7 x111 x136))) (not (= (x7 x100 x136) x121))) (not (= (x7 x66 x136) x18))))) (or (and (not (= x15 (x7 x150 x18))) (and (and (and (not (= x121 (x7 x81 x18))) (not (= x10 (x7 x62 x18)))) (not (= (x7 x151 x18) x18))) (not (= (x7 x90 x18) x136)))) (or (and (not (= x15 (x7 x73 x10))) (and (not (= (x7 x157 x10) x136)) (and (and (not (= (x7 x144 x10) x121)) (not (= (x7 x34 x10) x10))) (not (= (x7 x71 x10) x18))))) (and (and (not (= (x7 x63 x121) x136)) (and (not (= x18 (x7 x88 x121))) (and (not (= (x7 x69 x121) x121)) (not (= (x7 x86 x121) x10))))) (not (= (x7 x29 x121) x15))))))) (and (or (or (= (x7 x136 x94) x15) (or (= (x7 x18 x28) x15) (or (= (x7 x121 x35) x15) (= (x7 x10 x74) x15)))) (= (x7 x15 x75) x15)) (and (and (and (or (= (x7 x15 x29) x121) (or (or (= x121 (x7 x18 x88)) (or (= x121 (x7 x121 x69)) (= (x7 x10 x86) x121))) (= (x7 x136 x63) x121))) (or (= x10 (x7 x15 x73)) (or (or (or (= (x7 x10 x34) x10) (= x10 (x7 x121 x144))) (= x10 (x7 x18 x71))) (= (x7 x136 x157) x10)))) (or (= x18 (x7 x15 x150)) (or (or (or (= x18 (x7 x121 x81)) (= x18 (x7 x10 x62))) (= x18 (x7 x18 x151))) (= (x7 x136 x90) x18)))) (or (= x136 (x7 x15 x9)) (or (or (= x136 (x7 x18 x66)) (or (= x136 (x7 x10 x111)) (= x136 (x7 x121 x100)))) (= x136 (x7 x136 x104)))))))))
(assert (let ((x35 (x7 x121 x15)) (x67 (x7 x15 x121)) (x130 (x7 x15 x136)) (x32 (x7 x15 x15)) (x73 (x7 x10 x136)) (x86 (x7 x10 x15)) (x19 (x7 x18 x18)) (x63 (x7 x18 x10)) (x71 (x7 x10 x121)) (x9 (x7 x121 x18)) (x144 (x7 x10 x10)) (x74 (x7 x121 x136)) (x157 (x7 x10 x18)) (x29 (x7 x136 x10)) (x68 (x7 x136 x136)) (x84 (x7 x136 x15)) (x54 (x7 x136 x18)) (x138 (x7 x15 x18)) (x46 (x7 x18 x15)) (x88 (x7 x121 x10)) (x62 (x7 x15 x10)) (x99 (x7 x136 x121)) (x104 (x7 x121 x121)) (x134 (x7 x18 x136)) (x75 (x7 x18 x121))) (let ((x122 (= x136 x104)) (x36 (= x15 x134)) (x72 (= x136 x19)) (x17 (= x15 x71)) (x111 (= x71 x10)) (x6 (= x62 x15)) (x123 (= x35 x18)) (x137 (= x10 x9)) (x158 (= x63 x18)) (x85 (= x99 x10)) (x4 (= x35 x136)) (x159 (= x121 x32)) (x59 (= x10 x84)) (x93 (= x46 x18)) (x23 (= x29 x121)) (x30 (= x136 x9)) (x124 (= x136 x134)) (x101 (= x136 x138)) (x48 (= x15 x68)) (x145 (= x18 x84)) (x82 (= x121 x68)) (x118 (= x121 x19)) (x117 (= x15 x74)) (x14 (= x136 x46)) (x60 (= x9 x121)) (x40 (= x134 x121)) (x114 (= x121 x130)) (x128 (= x121 x35)) (x47 (= x74 x18)) (x94 (= x104 x121)) (x153 (= x73 x10)) (x2 (= x46 x10)) (x129 (= x18 x104)) (x146 (= x74 x136)) (x11 (= x99 x136)) (x65 (= x86 x136)) (x132 (= x75 x15)) (x50 (= x10 x54)) (x110 (= x157 x10)) (x126 (= x121 x138)) (x141 (= x134 x10)) (x148 (= x84 x121)) (x34 (= x10 x144)) (x87 (= x67 x121)) (x49 (= x84 x15)) (x24 (= x86 x121)) (x147 (= x10 x32)) (x116 (= x10 x63)) (x102 (= x136 x75)) (x27 (= x67 x15)) (x133 (= x9 x15)) (x98 (= x121 x46)) (x57 (= x18 x157)) (x26 (= x19 x15)) (x103 (= x18 x54)) (x80 (= x68 x18)) (x76 (= x136 x68)) (x150 (= x88 x10)) (x152 (= x136 x73)) (x156 (= x134 x18)) (x100 (= x104 x10)) (x13 (= x138 x10)) (x39 (= x9 x18)) (x149 (= x62 x121)) (x113 (= x75 x10)) (x115 (= x71 x18)) (x91 (= x10 x68)) (x55 (= x99 x18)) (x81 (= x144 x18)) (x119 (= x35 x15)) (x44 (= x157 x15)) (x112 (= x136 x32)) (x151 (= x136 x144)) (x125 (= x73 x18)) (x131 (= x10 x62)) (x106 (= x29 x136)) (x109 (= x18 x67)) (x52 (= x130 x10)) (x28 (= x121 x71)) (x41 (= x10 x74)) (x45 (= x99 x121)) (x3 (= x136 x54)) (x25 (= x18 x88)) (x22 (= x18 x29)) (x105 (= x67 x136)) (x79 (= x54 x15)) (x90 (= x15 x144)) (x12 (= x10 x67)) (x120 (= x15 x29)) (x51 (= x130 x18)) (x127 (= x15 x46)) (x1 (= x136 x62)) (x70 (= x121 x75)) (x154 (= x18 x86)) (x107 (= x63 x121)) (x135 (= x19 x10)) (x31 (= x86 x15)) (x53 (= x157 x121)) (x42 (= x63 x136)) (x69 (= x121 x144)) (x5 (= x35 x10)) (x16 (= x157 x136)) (x95 (= x15 x88)) (x38 (= x10 x86)) (x61 (= x19 x18)) (x97 (= x15 x99)) (x78 (= x121 x54)) (x142 (= x73 x121)) (x143 (= x130 x136)) (x77 (= x15 x32)) (x140 (= x15 x130)) (x56 (= x32 x18)) (x108 (= x136 x88)) (x37 (= x18 x62)) (x155 (= x18 x138)) (x92 (= x136 x84)) (x66 (= x121 x88)) (x64 (= x75 x18)) (x89 (= x104 x15)) (x8 (= x15 x138)) (x58 (= x63 x15)) (x21 (= x10 x29)) (x43 (= x73 x15)) (x33 (= x74 x121)) (x96 (= x71 x136))) (and (and (and (and (and (and (and (or (or (or x42 (or x108 x151)) x106) x1) (or (or (or x16 (or x96 x151)) x152) x65)) (and (and (or (or x125 (or (or x115 x81) x57)) x154) (or (or x22 (or (or x81 x25) x158)) x37)) (and (and (or x24 (or x142 (or (or x69 x28) x53))) (or (or (or (or x69 x66) x107) x23) x149)) (and (or (or x21 (or x116 (or x150 x34))) x131) (or (or x153 (or (or x111 x34) x110)) x38))))) (and (or (or (or x44 (or x90 x17)) x43) x31) (or (or x120 (or (or x95 x90) x58)) x6))) (and (and (or (or x117 (or x133 (or x89 x95))) x119) (or (or (or (or x17 x89) x132) x97) x27)) (and (and (and (or (or x55 (or (or x129 x115) x64)) x109) (or (or (or (or x129 x25) x39) x47) x123)) (and (and (or (or (or x113 (or x111 x100)) x85) x12) (or (or (or x137 (or x150 x100)) x41) x5)) (and (or x128 (or x33 (or x60 (or x94 x66)))) (or x87 (or (or x70 (or x94 x28)) x45))))) (and (or x4 (or x146 (or (or x108 x122) x30))) (or x105 (or (or (or x122 x96) x102) x11)))))) (and (and (or (or (or x26 (or x133 x44)) x79) x8) (or (or x36 (or (or x132 x58) x26)) x127)) (and (and (and (and (or (or x78 (or (or x53 x60) x118)) x126) (or (or (or x118 (or x107 x70)) x40) x98)) (and (or x13 (or (or (or x110 x137) x135) x50)) (or (or (or (or x113 x116) x135) x141) x2))) (and (or x93 (or (or (or x64 x158) x61) x156)) (or (or x103 (or (or x57 x39) x61)) x155))) (and (or (or (or (or x16 x30) x72) x3) x101) (or (or (or x72 (or x42 x102)) x124) x14))))) (and (and (or (or (or x79 (or x97 x120)) x48) x49) (or x140 (or x48 (or (or x43 x117) x36)))) (and (and (and (or x145 (or x80 (or x103 (or x55 x22)))) (or (or (or x156 (or x125 x47)) x80) x51)) (and (and (or x148 (or x82 (or (or x23 x45) x78))) (or (or x82 (or x40 (or x33 x142))) x114)) (and (or x59 (or x91 (or x50 (or x21 x85)))) (or x52 (or (or x141 (or x153 x41)) x91))))) (and (or (or (or x3 (or x11 x106)) x76) x92) (or x143 (or x76 (or x124 (or x152 x146)))))))) (and (and (or x77 (or (or (or x119 x31) x127) x49)) (or x77 (or x140 (or (or x6 x27) x8)))) (and (and (or (or (or (or x1 x105) x101) x143) x112) (or x112 (or x92 (or (or x65 x4) x14)))) (and (and (or x56 (or (or (or x123 x154) x93) x145)) (or (or (or (or x109 x37) x155) x51) x56)) (and (and (or x147 (or (or (or x38 x5) x2) x59)) (or x147 (or (or x13 (or x12 x131)) x52))) (and (or (or (or (or x128 x24) x98) x148) x159) (or (or x114 (or x126 (or x149 x87))) x159))))))))))
(assert (and (and (and (or (or (= x18 (x7 (x7 x136 x18) x136)) (or (= (x7 (x7 x18 x18) x18) x18) (or (= (x7 (x7 x121 x18) x121) x18) (= (x7 (x7 x10 x18) x10) x18)))) (= x18 (x7 (x7 x15 x18) x15))) (and (or (or (= (x7 (x7 x136 x10) x136) x10) (or (= x10 (x7 (x7 x18 x10) x18)) (or (= (x7 (x7 x121 x10) x121) x10) (= (x7 (x7 x10 x10) x10) x10)))) (= x10 (x7 (x7 x15 x10) x15))) (or (or (= x121 (x7 (x7 x136 x121) x136)) (or (or (= (x7 (x7 x121 x121) x121) x121) (= x121 (x7 (x7 x10 x121) x10))) (= x121 (x7 (x7 x18 x121) x18)))) (= x121 (x7 (x7 x15 x121) x15))))) (or (= x136 (x7 (x7 x15 x136) x15)) (or (or (or (= x136 (x7 (x7 x121 x136) x121)) (= x136 (x7 (x7 x10 x136) x10))) (= x136 (x7 (x7 x18 x136) x18))) (= (x7 (x7 x136 x136) x136) x136)))) (or (or (or (= (x7 (x7 x18 x15) x18) x15) (or (= x15 (x7 (x7 x121 x15) x121)) (= x15 (x7 (x7 x10 x15) x10)))) (= x15 (x7 (x7 x136 x15) x136))) (= (x7 (x7 x15 x15) x15) x15))))
(assert (let ((x157 (x7 x136 x136)) (x73 (x7 x15 x15)) (x71 (x7 x18 x18)) (x144 (x7 x121 x121)) (x34 (x7 x10 x10))) (or (and (not (= x15 x73)) (and (not (= x157 x15)) (and (and (not (= x34 x15)) (not (= x15 x144))) (not (= x15 x71))))) (or (or (and (not (= x18 x73)) (and (and (and (not (= x18 x34)) (not (= x144 x18))) (not (= x18 x71))) (not (= x18 x157)))) (or (and (not (= x73 x121)) (and (and (not (= x71 x121)) (and (not (= x144 x121)) (not (= x121 x34)))) (not (= x157 x121)))) (and (and (and (not (= x10 x71)) (and (not (= x10 x34)) (not (= x144 x10)))) (not (= x157 x10))) (not (= x10 x73))))) (and (not (= x136 x73)) (and (not (= x157 x136)) (and (not (= x136 x71)) (and (not (= x34 x136)) (not (= x136 x144))))))))))
(check-sat)
(exit)
